8318
0 0 1 0 0 0 0 0 0 0 1 0 0 0 0 0 0 0 1 1 
19 10 19 10 18 18 2 2 19 2 2 19 18 18 10 18 18 2 2 19 10 10 10 19 10 10 2 19 19 19 2 2 19 19 19 2 18 18 10 10 10 18 18 18 2 2 2 2 2 19 19 2 10 10 10 10 10 10 18 18 18 2 2 2 19 19 10 19 19 2 19 10 10 10 10 19 19 19 19 19 19 2 2 18 18 18 18 2 18 2 18 18 18 18 18 18 18 18 18 18 
